\ Model Routes
\ LP format - for model browsing. Use MPS format to capture full model detail.
Maximize
  - 127.7762031097757 R{0,0} + 1987.614909078877 R{0,1}
   + 2599.175974683483 R{0,2} + 2599.175974683483 R{0,3}
   + 1871.432039138458 R{0,4} + 2225.233125617536 R{0,5}
   + 1836.856210884241 R{0,6} + 2016.85439189703 R{0,7}
   + 1786.937208101689 R{0,8} + 1123.725940208885 R{0,9}
   + 1573.596715667281 R{0,10} + 1195.843089244774 R{0,11}
   + 1377.613065771002 R{0,12} + 1306.64483088987 R{0,13}
   + 1367.979998692128 R{0,14} + 1394.595727716513 R{0,15}
   + 1274.981978395331 R{0,16} + 1408.529267623163 R{0,17}
   + 1988.031724595609 R{0,18} + 1367.53510186188 R{0,19}
   + 1342.405573475917 R{0,20} + 1724.687583435855 R{0,21}
   + 1157.308145951989 R{0,22} + 1355.66009890292 R{0,23}
   + 1429.547520310527 R{0,24} + 1193.124899828912 R{0,25}
   + 1232.017501589872 R{0,26} - 200.856038906509 R{1,0}
   + 590.5308991772945 R{1,1} + 986.8799869836498 R{1,2}
   + 821.72117707745 R{1,3} + 407.0495321099826 R{1,4}
   + 1086.252839519699 R{1,5} + 32.56879008682671 R{1,6}
   + 424.919476943664 R{1,7} + 291.7144157940805 R{1,8}
   + 415.8106039478428 R{1,9} + 1015.734346849177 R{1,10}
   + 251.661845650338 R{1,11} + 235.3109418422297 R{1,12}
   - 133.5200660505167 R{2,0} + 328.545359029852 R{2,1}
   + 738.6917068701267 R{2,2} + 527.9514689344999 R{2,3}
   + 1041.211409712153 R{2,4} + 564.8692641088154 R{2,5}
   + 262.9106919784657 R{2,6} + 582.559729914931 R{2,7}
   + 705.4646578354947 R{2,8} + 816.8037150456485 R{2,9}
   + 431.391997882598 R{2,10} + 953.6852741665323 R{2,11}
   + 439.7887075150704 R{2,12} + 886.7500547262521 R{2,13}
   + 1925.580513023788 R{2,14} + 688.5198131604177 R{2,15}
   + 868.7474010174753 R{2,16} + 1568.005293996262 R{3,0}
   - 192.385172168201 R{3,1} + 2126.545015546037 R{3,2}
   + 2133.392620207884 R{3,3} + 2392.786689923813 R{3,4}
   + 2302.114421371088 R{3,5} + 1850.413638989993 R{3,6}
   + 1134.616780576994 R{3,7} + 728.5455798848693 R{3,8}
   + 2294.015129492303 R{3,9} + 830.3695554498937 R{3,10}
   + 458.0666504793537 R{3,11} + 645.3793945346208 R{3,12}
   + 2067.29721978026 R{3,13} + 1390.364524984875 R{3,14}
   + 1985.781061887017 R{3,15} + 2337.426410996762 R{3,16}
   + 1960.461960574012 R{3,17} + 1868.318100076158 R{3,18}
   + 956.7092077238212 R{3,19} + 866.9965677096588 R{3,20}
   + 2869.758134771422 R{3,21} + 944.2153422376468 R{4,0}
   - 110.311124685748 R{4,1} + 249.2850660077673 R{4,2}
   + 3530.827638621746 R{4,3} + 3525.307596754079 R{4,4}
   + 1467.707455041573 R{4,5} + 337.0918189728912 R{4,6}
   + 2669.238333100478 R{4,7} + 1993.271047512844 R{4,8}
   + 652.3332545456735 R{4,9} + 2624.050455631025 R{4,10}
   + 197.1050735377913 R{4,11} + 593.8087437857702 R{4,12}
   + 1565.259564359952 R{4,13} + 1773.102758985874 R{4,14}
   + 2606.486350035092 R{4,15} + 1333.448232984937 R{4,16}
   + 1191.204436198465 R{4,17} + 3028.880554216737 R{4,18}
   + 2529.708682442671 R{4,19} + 2719.332235756146 R{4,20}
   + 2489.317249820889 R{4,21} + 2434.192925471868 R{4,22}
   + 1230.525396105885 R{4,23} + 2307.859691098709 R{4,24}
   + 3253.473091234452 R{4,25} + 2597.692215392236 R{4,26}
   + 2608.825747464849 R{4,27} - 185.9792297999622 R{5,0}
   + 829.827105402248 R{5,1} + 3954.491561731634 R{5,2}
   + 4182.296881874571 R{5,3} + 3576.742011456244 R{5,4}
   + 2675.710780871792 R{5,5} + 3086.502993806304 R{5,6}
   + 58.01436774383217 R{5,7} + 1.245224927853997 R{5,8}
   + 364.8903434443539 R{5,9} + 2610.397650435583 R{5,10}
   + 1875.263010139907 R{5,11} + 3277.398109194497 R{5,12}
   + 2307.710160269325 R{5,13} + 2674.366920239722 R{5,14}
   + 2646.690863008315 R{5,15} + 2041.13415385695 R{5,16}
   + 1849.105749971895 R{5,17} + 2089.318589270583 R{5,18}
   + 2309.851522217989 R{5,19} + 3659.752188564878 R{5,20}
   + 2077.074031447242 R{5,21} + 2391.944064377677 R{5,22}
   + 2999.75871591328 R{5,23} + 3446.361597884582 R{5,24}
   + 2179.851948592328 R{5,25} + 1546.460874264592 R{6,0}
   + 1939.461777148877 R{6,1} - 151.6582656969574 R{6,2}
   + 111.3856599336223 R{6,3} + 2356.93814565439 R{6,4}
   + 3569.600947257917 R{6,5} + 855.7465511769324 R{6,6}
   + 2163.83065090984 R{6,7} + 1139.082643468787 R{6,8}
   + 73.0714103601492 R{6,9} + 1455.812105031339 R{6,10}
   + 2444.59291950559 R{6,11} + 2414.028013012999 R{6,12}
   + 1080.112927687373 R{6,13} + 2686.867832599291 R{6,14}
   + 1078.688964985464 R{6,15} + 2356.026999248641 R{6,16}
   + 281.9345460184195 R{6,17} + 263.1531629614941 R{6,18}
   + 1982.647584386617 R{6,19} + 1714.534025783386 R{6,20}
   + 1834.345552472581 R{6,21} + 2406.411251059423 R{6,22}
   + 2494.04493762293 R{6,23} + 922.8065787295877 R{6,24}
   + 586.9568565908639 R{6,25}
Subject To
 R00: R{0,0} <= 1
 R01: R{0,1} <= 1
 R02: R{0,2} <= 1
 R03: R{0,3} <= 1
 R04: R{0,4} <= 1
 R05: R{0,5} <= 1
 R06: R{0,6} <= 1
 R07: R{0,7} <= 1
 R08: R{0,8} <= 1
 R09: R{0,9} <= 1
 R010: R{0,10} <= 1
 R011: R{0,11} <= 1
 R012: R{0,12} <= 1
 R013: R{0,13} <= 1
 R014: R{0,14} <= 1
 R015: R{0,15} <= 1
 R016: R{0,16} <= 1
 R017: R{0,17} <= 1
 R018: R{0,18} <= 1
 R019: R{0,19} <= 1
 R020: R{0,20} <= 1
 R021: R{0,21} <= 1
 R022: R{0,22} <= 1
 R023: R{0,23} <= 1
 R024: R{0,24} <= 1
 R025: R{0,25} <= 1
 R026: R{0,26} <= 1
 R027: R{1,0} <= 1
 R028: R{1,1} <= 1
 R029: R{1,2} <= 1
 R030: R{1,3} <= 1
 R031: R{1,4} <= 1
 R032: R{1,5} <= 1
 R033: R{1,6} <= 1
 R034: R{1,7} <= 1
 R035: R{1,8} <= 1
 R036: R{1,9} <= 1
 R037: R{1,10} <= 1
 R038: R{1,11} <= 1
 R039: R{1,12} <= 1
 R040: R{2,0} <= 1
 R041: R{2,1} <= 1
 R042: R{2,2} <= 1
 R043: R{2,3} <= 1
 R044: R{2,4} <= 1
 R045: R{2,5} <= 1
 R046: R{2,6} <= 1
 R047: R{2,7} <= 1
 R048: R{2,8} <= 1
 R049: R{2,9} <= 1
 R050: R{2,10} <= 1
 R051: R{2,11} <= 1
 R052: R{2,12} <= 1
 R053: R{2,13} <= 1
 R054: R{2,14} <= 1
 R055: R{2,15} <= 1
 R056: R{2,16} <= 1
 R057: R{3,0} <= 1
 R058: R{3,1} <= 1
 R059: R{3,2} <= 1
 R060: R{3,3} <= 1
 R061: R{3,4} <= 1
 R062: R{3,5} <= 1
 R063: R{3,6} <= 1
 R064: R{3,7} <= 1
 R065: R{3,8} <= 1
 R066: R{3,9} <= 1
 R067: R{3,10} <= 1
 R068: R{3,11} <= 1
 R069: R{3,12} <= 1
 R070: R{3,13} <= 1
 R071: R{3,14} <= 1
 R072: R{3,15} <= 1
 R073: R{3,16} <= 1
 R074: R{3,17} <= 1
 R075: R{3,18} <= 1
 R076: R{3,19} <= 1
 R077: R{3,20} <= 1
 R078: R{3,21} <= 1
 R079: R{4,0} <= 1
 R080: R{4,1} <= 1
 R081: R{4,2} <= 1
 R082: R{4,3} <= 1
 R083: R{4,4} <= 1
 R084: R{4,5} <= 1
 R085: R{4,6} <= 1
 R086: R{4,7} <= 1
 R087: R{4,8} <= 1
 R088: R{4,9} <= 1
 R089: R{4,10} <= 1
 R090: R{4,11} <= 1
 R091: R{4,12} <= 1
 R092: R{4,13} <= 1
 R093: R{4,14} <= 1
 R094: R{4,15} <= 1
 R095: R{4,16} <= 1
 R096: R{4,17} <= 1
 R097: R{4,18} <= 1
 R098: R{4,19} <= 1
 R099: R{4,20} <= 1
 R0100: R{4,21} <= 1
 R0101: R{4,22} <= 1
 R0102: R{4,23} <= 1
 R0103: R{4,24} <= 1
 R0104: R{4,25} <= 1
 R0105: R{4,26} <= 1
 R0106: R{4,27} <= 1
 R0107: R{5,0} <= 1
 R0108: R{5,1} <= 1
 R0109: R{5,2} <= 1
 R0110: R{5,3} <= 1
 R0111: R{5,4} <= 1
 R0112: R{5,5} <= 1
 R0113: R{5,6} <= 1
 R0114: R{5,7} <= 1
 R0115: R{5,8} <= 1
 R0116: R{5,9} <= 1
 R0117: R{5,10} <= 1
 R0118: R{5,11} <= 1
 R0119: R{5,12} <= 1
 R0120: R{5,13} <= 1
 R0121: R{5,14} <= 1
 R0122: R{5,15} <= 1
 R0123: R{5,16} <= 1
 R0124: R{5,17} <= 1
 R0125: R{5,18} <= 1
 R0126: R{5,19} <= 1
 R0127: R{5,20} <= 1
 R0128: R{5,21} <= 1
 R0129: R{5,22} <= 1
 R0130: R{5,23} <= 1
 R0131: R{5,24} <= 1
 R0132: R{5,25} <= 1
 R0133: R{6,0} <= 1
 R0134: R{6,1} <= 1
 R0135: R{6,2} <= 1
 R0136: R{6,3} <= 1
 R0137: R{6,4} <= 1
 R0138: R{6,5} <= 1
 R0139: R{6,6} <= 1
 R0140: R{6,7} <= 1
 R0141: R{6,8} <= 1
 R0142: R{6,9} <= 1
 R0143: R{6,10} <= 1
 R0144: R{6,11} <= 1
 R0145: R{6,12} <= 1
 R0146: R{6,13} <= 1
 R0147: R{6,14} <= 1
 R0148: R{6,15} <= 1
 R0149: R{6,16} <= 1
 R0150: R{6,17} <= 1
 R0151: R{6,18} <= 1
 R0152: R{6,19} <= 1
 R0153: R{6,20} <= 1
 R0154: R{6,21} <= 1
 R0155: R{6,22} <= 1
 R0156: R{6,23} <= 1
 R0157: R{6,24} <= 1
 R0158: R{6,25} <= 1
 R1_0: R{0,0} + R{0,1} + R{0,2} + R{0,3} + R{0,4} + R{0,5} + R{0,6}
   + R{0,7} + R{0,8} + R{0,9} + R{0,10} + R{0,11} + R{0,12} + R{0,13}
   + R{0,14} + R{0,15} + R{0,16} + R{0,17} + R{0,18} + R{0,19} + R{0,20}
   + R{0,21} + R{0,22} + R{0,23} + R{0,24} + R{0,25} + R{0,26} <= 1
 R1_1: R{1,0} + R{1,1} + R{1,2} + R{1,3} + R{1,4} + R{1,5} + R{1,6}
   + R{1,7} + R{1,8} + R{1,9} + R{1,10} + R{1,11} + R{1,12} <= 1
 R1_2: R{2,0} + R{2,1} + R{2,2} + R{2,3} + R{2,4} + R{2,5} + R{2,6}
   + R{2,7} + R{2,8} + R{2,9} + R{2,10} + R{2,11} + R{2,12} + R{2,13}
   + R{2,14} + R{2,15} + R{2,16} <= 1
 R1_3: R{3,0} + R{3,1} + R{3,2} + R{3,3} + R{3,4} + R{3,5} + R{3,6}
   + R{3,7} + R{3,8} + R{3,9} + R{3,10} + R{3,11} + R{3,12} + R{3,13}
   + R{3,14} + R{3,15} + R{3,16} + R{3,17} + R{3,18} + R{3,19} + R{3,20}
   + R{3,21} <= 1
 R1_4: R{4,0} + R{4,1} + R{4,2} + R{4,3} + R{4,4} + R{4,5} + R{4,6}
   + R{4,7} + R{4,8} + R{4,9} + R{4,10} + R{4,11} + R{4,12} + R{4,13}
   + R{4,14} + R{4,15} + R{4,16} + R{4,17} + R{4,18} + R{4,19} + R{4,20}
   + R{4,21} + R{4,22} + R{4,23} + R{4,24} + R{4,25} + R{4,26} + R{4,27}
   <= 1
 R1_5: R{5,0} + R{5,1} + R{5,2} + R{5,3} + R{5,4} + R{5,5} + R{5,6}
   + R{5,7} + R{5,8} + R{5,9} + R{5,10} + R{5,11} + R{5,12} + R{5,13}
   + R{5,14} + R{5,15} + R{5,16} + R{5,17} + R{5,18} + R{5,19} + R{5,20}
   + R{5,21} + R{5,22} + R{5,23} + R{5,24} + R{5,25} <= 1
 R1_6: R{6,0} + R{6,1} + R{6,2} + R{6,3} + R{6,4} + R{6,5} + R{6,6}
   + R{6,7} + R{6,8} + R{6,9} + R{6,10} + R{6,11} + R{6,12} + R{6,13}
   + R{6,14} + R{6,15} + R{6,16} + R{6,17} + R{6,18} + R{6,19} + R{6,20}
   + R{6,21} + R{6,22} + R{6,23} + R{6,24} + R{6,25} <= 1
 R2_0: 5 R{0,2} + 5 R{0,3} + 5 R{0,5} + 5 R{3,0} + 5 R{3,2} + 5 R{3,3}
   + 5 R{3,4} + 5 R{3,7} + 5 R{3,10} + 5 R{3,16} + 5 R{3,21} + 5 R{4,3}
   + 5 R{4,4} + 5 R{4,19} + 5 R{4,20} + 5 R{5,2} + 5 R{5,3} + 5 R{5,4}
   + 5 R{5,5} + 5 R{5,10} + 5 R{5,11} + 5 R{5,12} + 5 R{5,13} + 5 R{5,16}
   + 5 R{5,19} + 5 R{5,20} + 5 R{5,21} + 5 R{5,22} + 5 R{5,24} + 5 R{5,25}
   + 5 R{6,5} + 5 R{6,14} <= 5
 R2_1: 9 R{0,18} + 9 R{1,1} + 9 R{1,2} + 9 R{1,3} + 9 R{2,2} + 9 R{2,4}
   + 9 R{2,9} + 9 R{2,13} + 9 R{2,14} + 9 R{2,15} + 9 R{2,16} + 9 R{3,9}
   + 9 R{3,15} + 9 R{3,17} + 9 R{4,14} + 9 R{4,26} + 9 R{5,2} + 9 R{5,3}
   + 9 R{5,4} + 9 R{5,5} + 9 R{5,6} + 9 R{5,12} + 9 R{5,15} + 9 R{5,19}
   + 7 R{5,20} + 9 R{5,22} + 9 R{5,23} + 9 R{5,24} + 9 R{6,1} + 9 R{6,4}
   + 9 R{6,5} + 9 R{6,6} + 9 R{6,14} + 9 R{6,16} + 9 R{6,19} + 9 R{6,23}
   <= 9
 R2_2: <= 0
 R2_3: 5 R{1,1} + 5 R{1,3} + 5 R{1,5} + 5 R{1,7} + 5 R{1,12} + 5 R{3,16}
   + 5 R{4,4} + 5 R{4,7} + 5 R{4,8} + 5 R{4,10} + 5 R{4,20} + 5 R{4,21}
   + 5 R{4,22} + 5 R{4,24} + 5 R{4,27} + 5 R{5,2} + 5 R{5,3} + 5 R{5,4}
   + 5 R{5,6} + 5 R{5,10} + 5 R{5,14} + 5 R{5,18} + 5 R{5,20} + 5 R{5,21}
   <= 5
 R2_4: 13 R{1,1} + 13 R{1,2} + 13 R{1,12} + 13 R{4,0} <= 13
 R2_5: 5 R{2,1} + 5 R{2,2} + 5 R{2,6} + 5 R{2,12} + 5 R{2,16} <= 5
 R2_6: <= 0
 R2_7: 8 R{0,1} + 8 R{0,2} + 8 R{0,3} + 8 R{0,4} + 4 R{0,7} + 8 R{1,3}
   + 8 R{2,3} + 8 R{3,16} + 8 R{3,19} + 8 R{3,21} + 8 R{4,0} + 8 R{4,3}
   + 8 R{4,4} + 8 R{4,5} + 8 R{4,9} + 8 R{4,10} + 8 R{4,12} + 8 R{4,15}
   + 8 R{4,16} + 8 R{4,18} + 8 R{4,20} + 8 R{4,21} + 8 R{4,22} + 8 R{4,23}
   + 8 R{4,24} + 8 R{4,25} + 8 R{4,26} + 8 R{4,27} + 8 R{5,10} + 8 R{5,23}
   + 8 R{5,25} + 4 R{6,4} + 4 R{6,5} + 8 R{6,7} + 8 R{6,10} + 8 R{6,11}
   + 8 R{6,14} + 8 R{6,16} + 4 R{6,19} + 4 R{6,20} + 4 R{6,21} + 8 R{6,22}
   + 4 R{6,23} + 8 R{6,24} <= 8
 R2_8: 9 R{0,1} + 9 R{0,2} + 9 R{0,3} + 9 R{0,4} + 9 R{0,5} + 9 R{0,8}
   + 9 R{0,10} + 9 R{0,15} + 9 R{0,17} + 9 R{0,18} + 9 R{0,21} + 9 R{0,25}
   + 9 R{1,4} + 9 R{3,14} + 9 R{3,16} + 9 R{3,21} + 9 R{5,2} + 9 R{5,3}
   + 9 R{5,4} + 9 R{5,5} + 9 R{5,12} + 9 R{5,13} + 9 R{5,14} + 9 R{5,16}
   + 9 R{5,17} + 9 R{5,18} + 9 R{5,20} + 9 R{5,21} + 9 R{5,22} + 9 R{5,23}
   + 9 R{5,24} + 9 R{6,5} + 9 R{6,14} + 9 R{6,15} + 9 R{6,16} + 9 R{6,18}
   <= 9
 R2_9: 12 R{0,8} + 12 R{0,9} + 12 R{0,10} + 12 R{0,11} + 12 R{0,13}
   + 12 R{0,16} + 12 R{0,19} + 12 R{0,20} + 12 R{0,22} + 12 R{0,23}
   + 12 R{0,24} + 12 R{1,9} + 12 R{3,2} + 12 R{3,3} + 12 R{3,4} + 12 R{3,5}
   + 12 R{3,6} + 12 R{3,7} + 12 R{3,8} + 12 R{3,12} + 12 R{3,13}
   + 12 R{3,19} + 12 R{3,20} + 12 R{4,10} + 12 R{4,14} + 12 R{4,15}
   + 12 R{4,18} + 12 R{4,19} + 12 R{4,20} + 12 R{4,21} + 12 R{4,22}
   + 12 R{4,24} + 12 R{4,25} + 12 R{4,26} + 12 R{4,27} + 12 R{6,17}
   + 12 R{6,18} + 12 R{6,22} + 12 R{6,25} <= 12
 R2_10: 5 R{0,14} + 5 R{0,21} + 5 R{0,25} + 5 R{3,9} + 5 R{3,12}
   + 5 R{3,15} + 5 R{3,17} + 5 R{3,19} + 5 R{4,24} + 5 R{5,14} + 5 R{6,3}
   + 5 R{6,4} + 5 R{6,5} + 5 R{6,7} + 5 R{6,8} + 5 R{6,10} + 5 R{6,11}
   + 5 R{6,12} + 5 R{6,13} + 5 R{6,14} + 5 R{6,15} + 5 R{6,16} + 5 R{6,17}
   + 5 R{6,22} + 5 R{6,24} + 5 R{6,25} <= 5
 R2_11: 14 R{0,5} + 14 R{0,10} + 14 R{0,23} + 14 R{0,24} + 14 R{1,4}
   + 14 R{1,8} + 14 R{1,9} + 14 R{3,2} + 14 R{3,3} + 14 R{3,4} + 14 R{3,5}
   + 14 R{3,8} + 14 R{3,20} + 14 R{4,3} + 14 R{4,4} + 14 R{4,7}
   + 14 R{4,25} + 14 R{5,2} + 14 R{5,3} + 14 R{5,4} + 14 R{5,5} + 14 R{5,6}
   + 14 R{5,10} + 14 R{5,13} + 9 R{5,16} + 14 R{5,18} + 14 R{5,20}
   + 9 R{5,21} + 9 R{5,22} + 9 R{5,25} + 14 R{6,11} + 14 R{6,12}
   + 14 R{6,16} + 14 R{6,22} <= 14
 R2_12: 9 R{0,8} + 13 R{0,13} + 13 R{2,1} + 13 R{2,2} + 13 R{2,3}
   + 13 R{2,4} + 13 R{2,7} + 13 R{2,10} + 13 R{2,11} + 13 R{3,0}
   + 13 R{3,6} + 13 R{3,9} + 13 R{3,13} + 13 R{3,15} + 13 R{3,17}
   + 13 R{3,19} + 13 R{4,5} + 13 R{4,9} + 13 R{4,17} + 8 R{4,24}
   + 13 R{5,10} + 13 R{5,22} + 10 R{6,4} + 10 R{6,5} + 13 R{6,8}
   + 13 R{6,11} + 13 R{6,12} + 13 R{6,14} + 13 R{6,15} + 13 R{6,16}
   + 10 R{6,19} + 10 R{6,20} + 10 R{6,21} + 13 R{6,22} + 10 R{6,23} <= 13
 R2_13: 8 R{0,1} + 8 R{0,2} + 8 R{0,3} + 8 R{0,4} + 8 R{0,6} + 8 R{0,7}
   + 8 R{0,18} + 8 R{0,26} + 8 R{1,8} + 8 R{3,18} + 8 R{6,14} + 8 R{6,16}
   <= 8
 R2_14: <= 0
 R2_15: 12 R{0,7} + 12 R{0,12} + 12 R{0,13} + 12 R{0,14} + 12 R{0,15}
   + 12 R{0,16} + 12 R{0,17} + 12 R{0,20} + 12 R{0,21} + 12 R{0,22}
   + 12 R{0,25} + 12 R{0,26} + R{4,3} + R{4,4} + 12 R{4,10} + 12 R{4,19}
   + 12 R{4,22} + 12 R{4,27} + 12 R{6,3} + 12 R{6,4} + 12 R{6,5}
   + 12 R{6,7} + 12 R{6,8} + 12 R{6,10} + 12 R{6,11} + 12 R{6,13}
   + 12 R{6,24} <= 12
 R2_16: 5 R{0,7} + 5 R{0,11} + 5 R{0,14} + 5 R{0,20} + 5 R{0,24} + 5 R{1,8}
   + 5 R{3,2} + 5 R{3,3} + 5 R{3,4} + 5 R{3,5} + 5 R{3,6} + 5 R{3,7}
   + 5 R{3,9} + 5 R{3,12} + 5 R{3,14} + 5 R{3,15} + 5 R{3,16} + 5 R{3,17}
   + 5 R{3,18} + 5 R{3,20} + 5 R{3,21} + 5 R{4,10} + 5 R{4,18} + 5 R{4,19}
   + 5 R{4,20} + 5 R{4,22} + 5 R{4,25} + 5 R{4,27} + 5 R{6,10} + 5 R{6,12}
   + 5 R{6,17} <= 5
 R2_17: 11 R{0,6} + 11 R{0,7} + 11 R{0,8} + 11 R{0,12} + 11 R{0,14}
   + 11 R{0,22} + 11 R{0,23} + 10 R{0,24} + 11 R{0,26} + 11 R{1,11}
   + 11 R{2,14} + 11 R{3,2} + 11 R{3,3} + 11 R{3,5} + 11 R{3,6} + 11 R{3,9}
   + 11 R{3,10} + 11 R{3,14} + 11 R{3,15} + 11 R{3,16} + 11 R{3,17}
   + 11 R{3,20} + 11 R{3,21} + 11 R{5,6} + 11 R{5,7} + 11 R{5,9}
   + 11 R{5,21} + 11 R{6,7} + 11 R{6,8} + 11 R{6,11} + 11 R{6,12}
   + 11 R{6,13} + 11 R{6,14} + 11 R{6,16} + 11 R{6,19} + 11 R{6,20}
   + 11 R{6,21} + 11 R{6,22} + 11 R{6,23} + 11 R{6,25} <= 11
 R2_18: 6 R{0,6} + 6 R{0,7} + 6 R{0,8} + 6 R{3,5} + 6 R{4,5} + 6 R{4,7}
   + 6 R{5,1} + 6 R{5,2} + 6 R{5,3} + 6 R{5,4} + 6 R{5,6} + 6 R{5,14}
   + 6 R{5,15} + 6 R{5,19} + 6 R{5,20} + 6 R{5,24} + 6 R{6,4} + 6 R{6,5}
   + 6 R{6,7} + 6 R{6,10} + 6 R{6,11} + 6 R{6,12} + 6 R{6,14} + 6 R{6,16}
   + 6 R{6,19} + 6 R{6,20} + 6 R{6,21} + 6 R{6,22} + 6 R{6,23} <= 6
 R2_19: 8 R{0,1} + 8 R{0,2} + 8 R{0,3} + 8 R{0,4} + 8 R{0,6} + 8 R{0,18}
   + 8 R{1,2} + 8 R{1,10} + 8 R{2,7} + 8 R{2,8} + 8 R{2,11} + 8 R{3,0}
   + 6 R{3,9} + 8 R{3,15} + 8 R{3,17} + 8 R{4,12} + 8 R{4,13} + 8 R{4,18}
   + 8 R{4,22} + 8 R{4,25} + 8 R{5,2} + 8 R{5,3} + 8 R{5,4} + 8 R{5,6}
   + 8 R{5,10} + 8 R{5,11} + 8 R{5,12} + 8 R{5,14} + 8 R{5,15} + 8 R{5,20}
   + 8 R{5,23} + 8 R{6,11} + 8 R{6,12} + 8 R{6,22} <= 8
 R2_20: 7 R{1,10} + 10 R{2,5} + 10 R{2,14} + 10 R{3,2} + 10 R{3,3}
   + 10 R{3,4} + 10 R{3,5} + 10 R{3,6} + 9 R{3,9} + 10 R{3,13} + 10 R{3,18}
   + 10 R{3,21} + 10 R{4,3} + 10 R{4,4} + 10 R{4,7} + 10 R{4,10}
   + 7 R{4,13} + 10 R{4,15} + 7 R{4,18} + 10 R{4,19} + 10 R{4,20}
   + 10 R{4,21} + 10 R{4,23} + 7 R{4,25} + 10 R{4,26} + 10 R{4,27}
   + 10 R{5,24} + 10 R{6,0} + 10 R{6,1} + 10 R{6,4} + 10 R{6,5} + 10 R{6,7}
   + 7 R{6,11} + 7 R{6,12} + 10 R{6,20} + 10 R{6,21} + 7 R{6,22}
   + 10 R{6,23} <= 10
 R2_21: 8 R{0,10} + 8 R{0,11} + 8 R{0,13} + 8 R{0,19} + 8 R{0,25}
   + 8 R{1,11} + 8 R{3,7} + 8 R{3,8} + 8 R{3,9} + 8 R{5,1} + 8 R{5,2}
   + 8 R{5,3} + 8 R{5,4} + 8 R{5,5} + 8 R{5,8} + 8 R{5,9} + 8 R{5,10}
   + 8 R{5,11} + 8 R{5,12} + 8 R{5,13} + 8 R{5,14} + 8 R{5,16} + 8 R{5,17}
   + 8 R{5,18} + 8 R{5,19} + 8 R{5,20} + 8 R{5,21} + 8 R{5,22} + 8 R{5,23}
   + 8 R{5,24} + 8 R{5,25} + 8 R{6,15} + 8 R{6,23} + 8 R{6,24} + 8 R{6,25}
   <= 8
 R2_22: 10 R{0,17} + 11 R{0,18} + 10 R{0,21} + 11 R{0,25} + 11 R{3,5}
   + 11 R{3,7} + 11 R{3,8} + 11 R{3,14} + 11 R{3,15} + 11 R{3,16}
   + 4 R{3,17} + 11 R{3,21} + 11 R{5,5} + 11 R{5,10} + 11 R{5,11}
   + 11 R{5,13} + 11 R{5,16} + 11 R{5,17} + 11 R{5,18} + 11 R{5,20}
   + 4 R{5,21} + 11 R{5,22} + 10 R{5,23} + 11 R{5,25} + 11 R{6,3}
   + 11 R{6,4} + 11 R{6,5} + 11 R{6,7} + 11 R{6,8} + 11 R{6,10}
   + 11 R{6,11} + 11 R{6,12} + 4 R{6,13} + 11 R{6,14} + 11 R{6,15}
   + 11 R{6,16} + 4 R{6,19} + 11 R{6,24} <= 11
 R2_23: 14 R{0,8} + 14 R{0,9} + 14 R{0,11} + 14 R{0,13} + 14 R{0,14}
   + 14 R{0,16} + 14 R{0,19} + 6 R{0,21} + 6 R{0,25} + 14 R{1,6}
   + 14 R{3,6} + 14 R{3,9} + 14 R{3,13} + 14 R{3,15} + 6 R{3,16}
   + 14 R{3,17} + 14 R{3,18} + 6 R{3,21} + 14 R{4,8} + 14 R{4,18}
   + 14 R{4,21} + 6 R{5,12} + 14 R{5,19} + 6 R{5,23} + 14 R{6,5}
   + 14 R{6,7} + 14 R{6,8} + 14 R{6,9} + 14 R{6,10} + 14 R{6,13}
   + 14 R{6,15} + 14 R{6,24} + 14 R{6,25} <= 14
 R2_24: 7 R{0,15} + 7 R{1,7} + 7 R{1,10} + 7 R{1,12} + 7 R{3,0} + 7 R{3,5}
   + 7 R{3,6} + 7 R{3,9} + 7 R{3,12} + 7 R{3,13} + 7 R{3,15} + 7 R{3,18}
   + 7 R{4,14} + 7 R{5,1} + 7 R{5,2} + 7 R{5,3} + 7 R{5,6} + 7 R{5,9}
   + 7 R{5,12} + 7 R{5,14} + 7 R{5,20} + 7 R{5,24} + 7 R{5,25} + 7 R{6,14}
   + R{6,16} <= 7
 R2_25: 12 R{0,1} + 12 R{0,2} + 12 R{0,3} + 12 R{0,5} + 12 R{0,6}
   + 12 R{0,7} + 12 R{0,8} + 12 R{0,9} + 12 R{0,10} + 12 R{0,12}
   + 12 R{0,14} + 12 R{0,15} + 12 R{0,16} + 12 R{0,17} + 12 R{0,19}
   + 12 R{0,20} + 12 R{0,21} + 12 R{0,23} + 5 R{0,24} + 12 R{0,25}
   + 12 R{0,26} + 12 R{2,14} + 12 R{3,6} + 12 R{3,13} + 10 R{4,21}
   + 10 R{4,22} + 12 R{5,10} + 12 R{5,11} + 12 R{5,14} + 12 R{5,15}
   + 12 R{5,25} + 12 R{6,0} + 12 R{6,1} + 12 R{6,4} + 12 R{6,5} + 12 R{6,6}
   + 12 R{6,10} + 12 R{6,19} <= 12
 R2_26: 6 R{2,6} + 6 R{2,16} + 5 R{3,5} + 5 R{3,6} + 5 R{3,13} + 6 R{3,14}
   + 6 R{3,16} + 6 R{4,2} + 6 R{4,3} + 6 R{4,4} + 6 R{4,7} + 6 R{4,11}
   + 5 R{4,15} + 6 R{4,16} + 6 R{4,17} + 6 R{4,19} + 6 R{4,20} + 6 R{4,23}
   + 5 R{4,26} + 6 R{5,15} + 6 R{5,16} + 6 R{5,25} + 6 R{6,0} + 6 R{6,4}
   + 6 R{6,5} + 6 R{6,7} + 6 R{6,11} + 6 R{6,12} + 6 R{6,13} + 6 R{6,19}
   + 6 R{6,20} + 6 R{6,21} + 6 R{6,22} <= 6
 R2_27: <= 0
 R2_28: 7 R{0,20} + 7 R{1,5} + 7 R{2,1} + 7 R{2,3} + 7 R{2,4} + 7 R{2,5}
   + 7 R{2,6} + 7 R{2,7} + 7 R{2,8} + 7 R{2,9} + 7 R{2,10} + 7 R{2,11}
   + 7 R{2,12} + 7 R{2,13} + 7 R{2,14} + 7 R{2,15} + 7 R{2,16} + 7 R{4,6}
   + 7 R{4,8} + 7 R{4,11} + 7 R{4,17} + 7 R{4,24} + 7 R{5,13} + 7 R{5,16}
   + 7 R{5,17} + 7 R{5,18} + 7 R{5,21} + 7 R{6,16} <= 7
 R2_29: <= 0
 R2_30: <= 0
 R2_31: 5 R{0,7} + 5 R{0,18} + 5 R{1,5} + 5 R{3,2} + 5 R{3,3} + 5 R{3,4}
   + 5 R{4,0} + 5 R{4,3} + 5 R{4,4} + 5 R{4,8} + 5 R{4,10} + 5 R{4,15}
   + 5 R{4,18} + 5 R{4,19} + 5 R{4,20} + 5 R{4,21} + 5 R{4,22} + 5 R{4,24}
   + 5 R{4,25} + 5 R{4,27} + 5 R{5,2} + 5 R{5,3} + 5 R{5,15} + 5 R{5,17}
   + 5 R{5,18} + 5 R{5,20} + 5 R{6,4} + 5 R{6,5} + 5 R{6,8} + 5 R{6,19}
   + 5 R{6,20} + 5 R{6,21} + 5 R{6,23} <= 5
 R2_32: 10 R{2,8} + 10 R{2,12} + 10 R{3,5} + 10 R{3,6} + 10 R{3,13}
   + 10 R{3,14} + 10 R{3,16} + 10 R{3,18} + 10 R{4,2} + 10 R{4,3}
   + 10 R{4,4} + 10 R{4,7} + 10 R{4,10} + 10 R{4,13} + 10 R{4,16}
   + 10 R{4,19} + 10 R{4,20} + 10 R{4,23} + 8 R{5,20} + 6 R{6,23} <= 10
 R2_33: 12 R{1,5} + 12 R{3,0} + 12 R{3,4} + 12 R{3,11} + 12 R{3,12}
   + 12 R{3,13} + 12 R{3,18} + 12 R{3,19} + 12 R{4,0} + 10 R{4,3}
   + 10 R{4,4} + 10 R{4,5} + 10 R{4,7} + 10 R{4,8} + 12 R{4,9} + 10 R{4,10}
   + 12 R{4,13} + 10 R{4,14} + 10 R{4,15} + 12 R{4,16} + 12 R{4,17}
   + 10 R{4,18} + 12 R{4,19} + 12 R{4,20} + 10 R{4,24} + 10 R{4,25}
   + 10 R{4,26} + 10 R{4,27} + 12 R{5,1} + 12 R{5,2} + 12 R{5,24} <= 12
 R2_34: <= 0
 R2_35: 15 R{3,0} + 15 R{3,2} + 15 R{3,3} + 15 R{3,4} + 4 R{3,7}
   + 15 R{3,10} + 15 R{3,11} + 15 R{3,12} + 15 R{3,13} + 15 R{3,18}
   + 15 R{3,19} + 15 R{3,20} + 10 R{4,24} + 15 R{5,19} + 4 R{6,21}
   + 15 R{6,22} <= 15
 R2_36: 15 R{1,5} + 15 R{1,7} + 15 R{1,10} + 15 R{1,12} + 15 R{4,2}
   + 15 R{4,3} + 15 R{4,6} + 15 R{4,14} + 15 R{4,15} + 15 R{4,16}
   + 15 R{4,17} + 15 R{4,18} + 15 R{4,19} + 15 R{4,21} + 15 R{4,22}
   + 15 R{4,23} + 15 R{4,24} + 15 R{4,25} + 15 R{5,10} + 15 R{5,11}
   + 15 R{5,13} + 15 R{5,14} + 15 R{5,17} + 15 R{5,18} + 15 R{5,25}
   + 15 R{6,12} + 15 R{6,14} <= 16
 R2_37: 6 R{1,7} + 6 R{2,1} + 6 R{2,2} + 6 R{2,3} + 6 R{2,4} + 6 R{2,10}
   + 6 R{2,11} + 6 R{2,12} + 6 R{2,13} + 5 R{2,14} + 6 R{3,10} + 5 R{3,13}
   + 5 R{3,18} + 5 R{3,21} + 6 R{4,6} + 6 R{4,16} + 6 R{4,17} + 6 R{5,5}
   + 6 R{5,11} + 6 R{5,13} + 6 R{5,17} + 6 R{5,18} + 6 R{5,19} + 5 R{5,24}
   + 6 R{5,25} + 6 R{6,6} + 6 R{6,10} + 6 R{6,13} + 6 R{6,19} + 5 R{6,21}
   + 5 R{6,23} <= 6
 R2_38: 8 R{0,1} + 8 R{0,2} + 8 R{0,3} + 8 R{0,4} + 8 R{0,5} + 8 R{0,9}
   + 8 R{0,13} + 8 R{0,15} + 8 R{0,16} + 8 R{0,20} + 8 R{2,4} + 8 R{2,9}
   + 8 R{2,10} + 8 R{2,11} + 8 R{2,14} + 8 R{3,7} + 8 R{3,11} + 8 R{4,13}
   + 8 R{4,15} + 8 R{4,16} + 8 R{4,17} + 8 R{4,21} + 8 R{4,22} + 8 R{5,5}
   + 8 R{5,13} + 8 R{5,16} + 8 R{6,0} + 8 R{6,1} + 8 R{6,6} + 8 R{6,15}
   <= 8
 R2_39: <= 0
 R2_40: 14 R{0,16} + 14 R{0,20} + 14 R{1,1} + 14 R{1,2} + 14 R{1,3}
   + 14 R{1,5} + 14 R{1,7} + 14 R{1,10} + 14 R{1,12} + 14 R{2,6}
   + 14 R{2,8} + 14 R{2,9} + 14 R{2,12} + 14 R{2,14} + 14 R{2,15}
   + 14 R{2,16} + 14 R{3,5} + 14 R{3,14} + 14 R{3,16} + 14 R{3,21}
   + 14 R{4,13} + 14 R{4,23} + 14 R{4,25} + 14 R{5,11} + 14 R{5,16}
   + 14 R{5,21} + 14 R{5,22} + 14 R{6,10} + 14 R{6,13} <= 14
 R2_41: 5 R{0,1} + 5 R{0,2} + 5 R{0,3} + 5 R{0,4} + 5 R{0,5} + 5 R{0,6}
   + 5 R{0,7} + 5 R{0,8} + 5 R{0,9} + 5 R{0,10} + 5 R{0,11} + 5 R{0,12}
   + 5 R{0,13} + 5 R{0,14} + 5 R{0,15} + 5 R{0,16} + 5 R{0,17} + 5 R{0,19}
   + 5 R{0,20} + 5 R{0,21} + 5 R{0,22} + 5 R{0,23} + 5 R{0,24} + 5 R{0,26}
   + 5 R{4,3} + 5 R{4,4} + 5 R{4,5} + 5 R{4,7} + 5 R{4,8} + 5 R{4,10}
   + 5 R{4,14} + 5 R{4,15} + 5 R{4,18} + 5 R{4,21} + 5 R{4,22} + 5 R{4,24}
   + 5 R{4,25} + 5 R{4,26} + 5 R{4,27} + 5 R{5,3} + 5 R{5,4} + 5 R{5,6}
   + 5 R{5,12} + 5 R{5,14} + 5 R{5,15} + 5 R{5,23} + 5 R{6,0} + 5 R{6,1}
   <= 5
 R2_42: 4 R{2,13} + 4 R{3,5} + 4 R{3,6} + 4 R{3,15} + 4 R{3,17} + 4 R{3,21}
   + 4 R{4,7} + 4 R{4,8} + 4 R{4,16} + 4 R{4,23} + 2 R{4,24} + 4 R{4,27}
   + 4 R{5,1} + 4 R{5,2} + 4 R{5,3} + 4 R{5,4} + 4 R{5,5} + 4 R{5,6}
   + 4 R{5,12} + 4 R{5,13} + 4 R{5,17} + 4 R{5,18} + 4 R{5,19} + 4 R{5,20}
   + 4 R{5,23} + 4 R{5,24} + 4 R{6,20} <= 4
 R2_43: <= 0
 R2_44: 12 R{0,7} + 10 R{0,18} + 12 R{3,5} + 12 R{3,14} + 7 R{3,16}
   + 12 R{3,21} + 12 R{5,1} + 12 R{5,2} + 12 R{5,3} + 12 R{5,4} + 12 R{5,9}
   + 12 R{5,10} + 12 R{5,11} + 12 R{5,12} + 12 R{5,14} + 12 R{5,17}
   + 12 R{5,18} + 12 R{5,19} + 12 R{5,20} + 12 R{5,21} + 12 R{5,22}
   + 12 R{5,23} + 12 R{5,24} + 12 R{5,25} + 12 R{6,4} + 12 R{6,5}
   + 12 R{6,7} + 12 R{6,8} + 12 R{6,13} + 9 R{6,23} + 12 R{6,24} <= 12
 R2_45: 6 R{0,1} + 6 R{0,2} + 6 R{0,3} + 6 R{0,5} + 6 R{0,6} + 6 R{0,12}
   + 6 R{0,15} + 6 R{0,17} + 6 R{0,21} + 6 R{0,25} + 6 R{0,26} + 6 R{3,14}
   + 6 R{3,16} + 6 R{3,21} + 6 R{4,3} + 6 R{4,4} + 6 R{4,7} + 6 R{4,8}
   + 6 R{5,2} + 6 R{5,3} + 6 R{5,5} + 6 R{5,6} + 6 R{5,10} + 6 R{5,12}
   + 6 R{5,13} + 6 R{5,14} + 6 R{5,16} + 6 R{5,17} + 6 R{5,19} + 6 R{5,20}
   + 6 R{5,21} + 6 R{5,22} + 6 R{5,23} + 6 R{5,24} + 6 R{5,25} + 6 R{6,7}
   <= 6
 R2_46: 6 R{0,4} + 6 R{0,7} + 6 R{0,12} + 6 R{0,18} + 6 R{0,19} + 6 R{0,21}
   + 6 R{0,22} + 6 R{0,25} + 6 R{1,9} + 6 R{3,5} + 6 R{3,6} + 6 R{3,8}
   + 6 R{3,13} + 6 R{3,14} + 6 R{3,17} + 6 R{3,18} + 6 R{3,19} + 6 R{3,20}
   + 6 R{4,24} + 6 R{5,6} + 6 R{5,14} + 6 R{5,15} + 6 R{5,17} + 6 R{5,18}
   + 6 R{6,3} + 6 R{6,4} + 6 R{6,5} + 6 R{6,7} + 6 R{6,8} + 6 R{6,10}
   + 6 R{6,11} + 6 R{6,12} + 6 R{6,13} + 6 R{6,14} + 6 R{6,15} + 6 R{6,16}
   + 6 R{6,17} + 6 R{6,22} + 6 R{6,24} <= 6
Bounds
End
